db/data/9596971694464301657081312572612837.z3.out
sat
-------------------
1644.819223774
